
Gurobi 7.5.2 (linux64, Python) logging started Sun 22 Apr 2018 10:33:47 PM EDT

Academic license - for non-commercial use only
Read MPS format model from file sslp/sslp_15_45_5.mps
Reading time = 0.00 seconds
SSLP_15_45_5: 61 rows, 705 columns, 1379 nonzeros
